Minimize
	value: tt

Subject to
tt + 2000 s_1_1 > 0
tt - t_1_1 - 2003.000000 s_1_1 + 3.000000 s_1_6 > -1998.383522
tt + 2000 s_2_1 > 0
tt - t_2_1 - 2003.000000 s_2_1 + 3.000000 s_2_6 > -1991.272104
tt + 2000 s_1_2 > 0
tt - t_1_2 - 2003.000000 s_1_2 + 3.000000 s_1_7 > -1998.170378
tt + 2000 s_2_2 > 0
tt - t_2_2 - 2003.000000 s_2_2 + 3.000000 s_2_7 > -1990.751904
tt + 2000 s_1_3 > 0
tt - t_1_3 - 2003.000000 s_1_3 + 3.000000 s_1_7 > -1998.012856
tt + 2000 s_2_3 > 0
tt - t_2_3 - 2003.000000 s_2_3 + 3.000000 s_2_7 > -1986.012277
tt + 2000 s_1_4 > 0
tt - t_1_4 - 2012.000000 s_1_4 + 12.000000 s_1_7 > -1999.088567
tt + 2000 s_2_4 > 0
tt - t_2_4 - 2012.000000 s_2_4 + 12.000000 s_2_7 > -1992.336025
tt + 2000 s_1_5 > 0
tt - t_1_5 - 2012.000000 s_1_5 + 12.000000 s_1_6 > -1998.474200
tt + 2000 s_2_5 > 0
tt - t_2_5 - 2012.000000 s_2_5 + 12.000000 s_2_6 > -1990.380647
tt + 2000 s_1_6 > 0
tt - t_1_6 - 2000.000000 s_1_6 > -1996.803189
tt + 2000 s_2_6 > 0
tt - t_2_6 - 2000.000000 s_2_6 > -1993.318300
tt + 2000 s_1_7 > 0
tt - t_1_7 - 2000.000000 s_1_7 > -1996.657000
tt + 2000 s_2_7 > 0
tt - t_2_7 - 2000.000000 s_2_7 > -1991.996378
tt + 2000 s_1_8 > 0
tt - t_1_8 - 2075.000000 s_1_8 + 75.000000 s_1_2 > -1999.720900
tt + 2000 s_2_8 > 0
tt - t_2_8 - 2075.000000 s_2_8 + 75.000000 s_2_2 > -1995.741300
s_1_1 + s_2_1  = 1
s_1_2 + s_2_2  = 1
s_1_3 + s_2_3  = 1
s_1_4 + s_2_4  = 1
s_1_5 + s_2_5  = 1
s_1_6 + s_2_6  = 1
s_1_7 + s_2_7  = 1
s_1_8 + s_2_8  = 1
t_1_1 - t_1_2 + 2000.000000 u_1_1_2 - 3.000000 s_1_2 + 3.000000 s_1_7 > 1.829622
t_1_2 - t_1_1 - 2000.000000 u_1_1_2 > -1998.383522
t_2_1 - t_2_2 + 2000.000000 u_2_1_2 - 3.000000 s_2_2 + 3.000000 s_2_7 > 9.248096
t_2_2 - t_2_1 - 2000.000000 u_2_1_2 > -1991.272104
t_1_1 - t_1_3 + 2000.000000 u_1_1_3 - 3.000000 s_1_3 + 3.000000 s_1_7 > 1.987144
t_1_3 - t_1_1 - 2000.000000 u_1_1_3 > -1998.383522
t_2_1 - t_2_3 + 2000.000000 u_2_1_3 - 3.000000 s_2_3 + 3.000000 s_2_7 > 13.987723
t_2_3 - t_2_1 - 2000.000000 u_2_1_3 > -1991.272104
t_1_1 - t_1_4 + 2000.000000 u_1_1_4 - 6.000000 s_1_4 + 6.000000 s_1_7 > 0.911433
t_1_4 - t_1_1 - 2000.000000 u_1_1_4 > -1998.383522
t_2_1 - t_2_4 + 2000.000000 u_2_1_4 - 6.000000 s_2_4 + 6.000000 s_2_7 > 7.663975
t_2_4 - t_2_1 - 2000.000000 u_2_1_4 > -1991.272104
t_1_1 - t_1_5 + 2000.000000 u_1_1_5 - 6.000000 s_1_5 + 6.000000 s_1_6 > 1.525800
t_1_5 - t_1_1 - 2000.000000 u_1_1_5 > -1998.383522
t_2_1 - t_2_5 + 2000.000000 u_2_1_5 - 6.000000 s_2_5 + 6.000000 s_2_6 > 9.619353
t_2_5 - t_2_1 - 2000.000000 u_2_1_5 > -1991.272104
t_1_1 - t_1_6 - 2000.000000 s_1_6 > -1993.803189
t_1_1 - t_2_6 - 2000.000000 s_2_6 > -1990.318300
t_2_1 - t_1_6 - 2000.000000 s_1_6 > -1993.803189
t_2_1 - t_2_6 - 2000.000000 s_2_6 > -1990.318300
t_1_1 - t_1_7 + 2000.000000 u_1_1_7 > 3.343000
t_1_7 - t_1_1 - 2000.000000 u_1_1_7 > -1998.383522
t_2_1 - t_2_7 + 2000.000000 u_2_1_7 > 8.003622
t_2_7 - t_2_1 - 2000.000000 u_2_1_7 > -1991.272104
t_1_8 - t_1_1 - 2000.000000 s_1_1 > -1995.383522
t_1_8 - t_2_1 - 2000.000000 s_2_1 > -1988.272104
t_2_8 - t_1_1 - 2000.000000 s_1_1 > -1995.383522
t_2_8 - t_2_1 - 2000.000000 s_2_1 > -1988.272104
t_1_2 - t_1_1 + 2000.000000 u_1_2_1 - 3.000000 s_1_1 + 3.000000 s_1_6 > 1.616478
t_1_1 - t_1_2 - 2000.000000 u_1_2_1 > -1998.170378
t_2_2 - t_2_1 + 2000.000000 u_2_2_1 - 3.000000 s_2_1 + 3.000000 s_2_6 > 8.727896
t_2_1 - t_2_2 - 2000.000000 u_2_2_1 > -1990.751904
t_1_2 - t_1_3 + 2000.000000 u_1_2_3 - 3.000000 s_1_3 + 3.000000 s_1_7 > 1.987144
t_1_3 - t_1_2 - 2000.000000 u_1_2_3 > -1998.170378
t_2_2 - t_2_3 + 2000.000000 u_2_2_3 - 3.000000 s_2_3 + 3.000000 s_2_7 > 13.987723
t_2_3 - t_2_2 - 2000.000000 u_2_2_3 > -1990.751904
t_1_2 - t_1_4 + 2000.000000 u_1_2_4 - 6.000000 s_1_4 + 6.000000 s_1_7 > 0.911433
t_1_4 - t_1_2 - 2000.000000 u_1_2_4 > -1998.170378
t_2_2 - t_2_4 + 2000.000000 u_2_2_4 - 6.000000 s_2_4 + 6.000000 s_2_7 > 7.663975
t_2_4 - t_2_2 - 2000.000000 u_2_2_4 > -1990.751904
t_1_2 - t_1_5 + 2000.000000 u_1_2_5 - 6.000000 s_1_5 + 6.000000 s_1_6 > 1.525800
t_1_5 - t_1_2 - 2000.000000 u_1_2_5 > -1998.170378
t_2_2 - t_2_5 + 2000.000000 u_2_2_5 - 6.000000 s_2_5 + 6.000000 s_2_6 > 9.619353
t_2_5 - t_2_2 - 2000.000000 u_2_2_5 > -1990.751904
t_1_2 - t_1_6 + 2000.000000 u_1_2_6 > 3.196811
t_1_6 - t_1_2 - 2000.000000 u_1_2_6 > -1998.170378
t_2_2 - t_2_6 + 2000.000000 u_2_2_6 > 6.681700
t_2_6 - t_2_2 - 2000.000000 u_2_2_6 > -1990.751904
t_1_2 - t_1_7 - 2000.000000 s_1_7 > -1993.657000
t_1_2 - t_2_7 - 2000.000000 s_2_7 > -1988.996378
t_2_2 - t_1_7 - 2000.000000 s_1_7 > -1993.657000
t_2_2 - t_2_7 - 2000.000000 s_2_7 > -1988.996378
t_1_8 - t_1_2 - 2000.000000 s_1_2 > -1995.170378
t_1_8 - t_2_2 - 2000.000000 s_2_2 > -1987.751904
t_2_8 - t_1_2 - 2000.000000 s_1_2 > -1995.170378
t_2_8 - t_2_2 - 2000.000000 s_2_2 > -1987.751904
t_1_3 - t_1_1 + 2000.000000 u_1_3_1 - 3.000000 s_1_1 + 3.000000 s_1_6 > 1.616478
t_1_1 - t_1_3 - 2000.000000 u_1_3_1 > -1998.012856
t_2_3 - t_2_1 + 2000.000000 u_2_3_1 - 3.000000 s_2_1 + 3.000000 s_2_6 > 8.727896
t_2_1 - t_2_3 - 2000.000000 u_2_3_1 > -1986.012277
t_1_3 - t_1_2 + 2000.000000 u_1_3_2 - 3.000000 s_1_2 + 3.000000 s_1_7 > 1.829622
t_1_2 - t_1_3 - 2000.000000 u_1_3_2 > -1998.012856
t_2_3 - t_2_2 + 2000.000000 u_2_3_2 - 3.000000 s_2_2 + 3.000000 s_2_7 > 9.248096
t_2_2 - t_2_3 - 2000.000000 u_2_3_2 > -1986.012277
t_1_4 - t_1_3 - 2000.000000 s_1_3 > -1995.012856
t_1_4 - t_2_3 - 2000.000000 s_2_3 > -1983.012277
t_2_4 - t_1_3 - 2000.000000 s_1_3 > -1995.012856
t_2_4 - t_2_3 - 2000.000000 s_2_3 > -1983.012277
t_1_3 - t_1_5 + 2000.000000 u_1_3_5 - 6.000000 s_1_5 + 6.000000 s_1_6 > 1.525800
t_1_5 - t_1_3 - 2000.000000 u_1_3_5 > -1998.012856
t_2_3 - t_2_5 + 2000.000000 u_2_3_5 - 6.000000 s_2_5 + 6.000000 s_2_6 > 9.619353
t_2_5 - t_2_3 - 2000.000000 u_2_3_5 > -1986.012277
t_1_3 - t_1_6 + 2000.000000 u_1_3_6 > 3.196811
t_1_6 - t_1_3 - 2000.000000 u_1_3_6 > -1998.012856
t_2_3 - t_2_6 + 2000.000000 u_2_3_6 > 6.681700
t_2_6 - t_2_3 - 2000.000000 u_2_3_6 > -1986.012277
t_1_3 - t_1_7 - 2000.000000 s_1_7 > -1993.657000
t_1_3 - t_2_7 - 2000.000000 s_2_7 > -1988.996378
t_2_3 - t_1_7 - 2000.000000 s_1_7 > -1993.657000
t_2_3 - t_2_7 - 2000.000000 s_2_7 > -1988.996378
t_1_8 - t_1_3 - 2000.000000 s_1_3 > -1995.012856
t_1_8 - t_2_3 - 2000.000000 s_2_3 > -1983.012277
t_2_8 - t_1_3 - 2000.000000 s_1_3 > -1995.012856
t_2_8 - t_2_3 - 2000.000000 s_2_3 > -1983.012277
t_1_4 - t_1_1 + 2000.000000 u_1_4_1 - 3.000000 s_1_1 + 3.000000 s_1_6 > 1.616478
t_1_1 - t_1_4 - 2000.000000 u_1_4_1 > -1999.088567
t_2_4 - t_2_1 + 2000.000000 u_2_4_1 - 3.000000 s_2_1 + 3.000000 s_2_6 > 8.727896
t_2_1 - t_2_4 - 2000.000000 u_2_4_1 > -1992.336025
t_1_4 - t_1_2 + 2000.000000 u_1_4_2 - 3.000000 s_1_2 + 3.000000 s_1_7 > 1.829622
t_1_2 - t_1_4 - 2000.000000 u_1_4_2 > -1999.088567
t_2_4 - t_2_2 + 2000.000000 u_2_4_2 - 3.000000 s_2_2 + 3.000000 s_2_7 > 9.248096
t_2_2 - t_2_4 - 2000.000000 u_2_4_2 > -1992.336025
t_1_4 - t_1_3 - 2000.000000 s_1_3 > -1995.012856
t_1_4 - t_2_3 - 2000.000000 s_2_3 > -1983.012277
t_2_4 - t_1_3 - 2000.000000 s_1_3 > -1995.012856
t_2_4 - t_2_3 - 2000.000000 s_2_3 > -1983.012277
t_1_4 - t_1_5 + 2000.000000 u_1_4_5 - 6.000000 s_1_5 + 6.000000 s_1_6 > 1.525800
t_1_5 - t_1_4 - 2000.000000 u_1_4_5 > -1999.088567
t_2_4 - t_2_5 + 2000.000000 u_2_4_5 - 6.000000 s_2_5 + 6.000000 s_2_6 > 9.619353
t_2_5 - t_2_4 - 2000.000000 u_2_4_5 > -1992.336025
t_1_4 - t_1_6 + 2000.000000 u_1_4_6 > 3.196811
t_1_6 - t_1_4 - 2000.000000 u_1_4_6 > -1999.088567
t_2_4 - t_2_6 + 2000.000000 u_2_4_6 > 6.681700
t_2_6 - t_2_4 - 2000.000000 u_2_4_6 > -1992.336025
t_1_4 - t_1_7 - 2000.000000 s_1_7 > -1993.657000
t_1_4 - t_2_7 - 2000.000000 s_2_7 > -1988.996378
t_2_4 - t_1_7 - 2000.000000 s_1_7 > -1993.657000
t_2_4 - t_2_7 - 2000.000000 s_2_7 > -1988.996378
t_1_8 - t_1_4 - 2000.000000 s_1_4 > -1993.088567
t_1_8 - t_2_4 - 2000.000000 s_2_4 > -1986.336025
t_2_8 - t_1_4 - 2000.000000 s_1_4 > -1993.088567
t_2_8 - t_2_4 - 2000.000000 s_2_4 > -1986.336025
t_1_5 - t_1_1 + 2000.000000 u_1_5_1 - 3.000000 s_1_1 + 3.000000 s_1_6 > 1.616478
t_1_1 - t_1_5 - 2000.000000 u_1_5_1 > -1998.474200
t_2_5 - t_2_1 + 2000.000000 u_2_5_1 - 3.000000 s_2_1 + 3.000000 s_2_6 > 8.727896
t_2_1 - t_2_5 - 2000.000000 u_2_5_1 > -1990.380647
t_1_5 - t_1_2 + 2000.000000 u_1_5_2 - 3.000000 s_1_2 + 3.000000 s_1_7 > 1.829622
t_1_2 - t_1_5 - 2000.000000 u_1_5_2 > -1998.474200
t_2_5 - t_2_2 + 2000.000000 u_2_5_2 - 3.000000 s_2_2 + 3.000000 s_2_7 > 9.248096
t_2_2 - t_2_5 - 2000.000000 u_2_5_2 > -1990.380647
t_1_5 - t_1_3 + 2000.000000 u_1_5_3 - 3.000000 s_1_3 + 3.000000 s_1_7 > 1.987144
t_1_3 - t_1_5 - 2000.000000 u_1_5_3 > -1998.474200
t_2_5 - t_2_3 + 2000.000000 u_2_5_3 - 3.000000 s_2_3 + 3.000000 s_2_7 > 13.987723
t_2_3 - t_2_5 - 2000.000000 u_2_5_3 > -1990.380647
t_1_5 - t_1_4 + 2000.000000 u_1_5_4 - 6.000000 s_1_4 + 6.000000 s_1_7 > 0.911433
t_1_4 - t_1_5 - 2000.000000 u_1_5_4 > -1998.474200
t_2_5 - t_2_4 + 2000.000000 u_2_5_4 - 6.000000 s_2_4 + 6.000000 s_2_7 > 7.663975
t_2_4 - t_2_5 - 2000.000000 u_2_5_4 > -1990.380647
t_1_5 - t_1_6 - 2000.000000 s_1_6 > -1993.803189
t_1_5 - t_2_6 - 2000.000000 s_2_6 > -1990.318300
t_2_5 - t_1_6 - 2000.000000 s_1_6 > -1993.803189
t_2_5 - t_2_6 - 2000.000000 s_2_6 > -1990.318300
t_1_5 - t_1_7 - 2000.000000 s_1_7 > -1993.657000
t_1_5 - t_2_7 - 2000.000000 s_2_7 > -1988.996378
t_2_5 - t_1_7 - 2000.000000 s_1_7 > -1993.657000
t_2_5 - t_2_7 - 2000.000000 s_2_7 > -1988.996378
t_1_8 - t_1_5 - 2000.000000 s_1_5 > -1992.474200
t_1_8 - t_2_5 - 2000.000000 s_2_5 > -1984.380647
t_2_8 - t_1_5 - 2000.000000 s_1_5 > -1992.474200
t_2_8 - t_2_5 - 2000.000000 s_2_5 > -1984.380647
t_1_1 - t_1_6 - 2000.000000 s_1_6 > -1993.803189
t_1_1 - t_2_6 - 2000.000000 s_2_6 > -1990.318300
t_2_1 - t_1_6 - 2000.000000 s_1_6 > -1993.803189
t_2_1 - t_2_6 - 2000.000000 s_2_6 > -1990.318300
t_1_6 - t_1_2 + 2000.000000 u_1_6_2 - 3.000000 s_1_2 + 3.000000 s_1_7 > 1.829622
t_1_2 - t_1_6 - 2000.000000 u_1_6_2 > -1996.803189
t_2_6 - t_2_2 + 2000.000000 u_2_6_2 - 3.000000 s_2_2 + 3.000000 s_2_7 > 9.248096
t_2_2 - t_2_6 - 2000.000000 u_2_6_2 > -1993.318300
t_1_6 - t_1_3 + 2000.000000 u_1_6_3 - 3.000000 s_1_3 + 3.000000 s_1_7 > 1.987144
t_1_3 - t_1_6 - 2000.000000 u_1_6_3 > -1996.803189
t_2_6 - t_2_3 + 2000.000000 u_2_6_3 - 3.000000 s_2_3 + 3.000000 s_2_7 > 13.987723
t_2_3 - t_2_6 - 2000.000000 u_2_6_3 > -1993.318300
t_1_6 - t_1_4 + 2000.000000 u_1_6_4 - 6.000000 s_1_4 + 6.000000 s_1_7 > 0.911433
t_1_4 - t_1_6 - 2000.000000 u_1_6_4 > -1996.803189
t_2_6 - t_2_4 + 2000.000000 u_2_6_4 - 6.000000 s_2_4 + 6.000000 s_2_7 > 7.663975
t_2_4 - t_2_6 - 2000.000000 u_2_6_4 > -1993.318300
t_1_5 - t_1_6 - 2000.000000 s_1_6 > -1993.803189
t_1_5 - t_2_6 - 2000.000000 s_2_6 > -1990.318300
t_2_5 - t_1_6 - 2000.000000 s_1_6 > -1993.803189
t_2_5 - t_2_6 - 2000.000000 s_2_6 > -1990.318300
t_1_6 - t_1_7 + 2000.000000 u_1_6_7 > 3.343000
t_1_7 - t_1_6 - 2000.000000 u_1_6_7 > -1996.803189
t_2_6 - t_2_7 + 2000.000000 u_2_6_7 > 8.003622
t_2_7 - t_2_6 - 2000.000000 u_2_6_7 > -1993.318300
t_1_7 - t_1_1 + 2000.000000 u_1_7_1 - 3.000000 s_1_1 + 3.000000 s_1_6 > 1.616478
t_1_1 - t_1_7 - 2000.000000 u_1_7_1 > -1996.657000
t_2_7 - t_2_1 + 2000.000000 u_2_7_1 - 3.000000 s_2_1 + 3.000000 s_2_6 > 8.727896
t_2_1 - t_2_7 - 2000.000000 u_2_7_1 > -1991.996378
t_1_2 - t_1_7 - 2000.000000 s_1_7 > -1993.657000
t_1_2 - t_2_7 - 2000.000000 s_2_7 > -1988.996378
t_2_2 - t_1_7 - 2000.000000 s_1_7 > -1993.657000
t_2_2 - t_2_7 - 2000.000000 s_2_7 > -1988.996378
t_1_3 - t_1_7 - 2000.000000 s_1_7 > -1993.657000
t_1_3 - t_2_7 - 2000.000000 s_2_7 > -1988.996378
t_2_3 - t_1_7 - 2000.000000 s_1_7 > -1993.657000
t_2_3 - t_2_7 - 2000.000000 s_2_7 > -1988.996378
t_1_4 - t_1_7 - 2000.000000 s_1_7 > -1993.657000
t_1_4 - t_2_7 - 2000.000000 s_2_7 > -1988.996378
t_2_4 - t_1_7 - 2000.000000 s_1_7 > -1993.657000
t_2_4 - t_2_7 - 2000.000000 s_2_7 > -1988.996378
t_1_5 - t_1_7 - 2000.000000 s_1_7 > -1993.657000
t_1_5 - t_2_7 - 2000.000000 s_2_7 > -1988.996378
t_2_5 - t_1_7 - 2000.000000 s_1_7 > -1993.657000
t_2_5 - t_2_7 - 2000.000000 s_2_7 > -1988.996378
t_1_7 - t_1_6 + 2000.000000 u_1_7_6 > 3.196811
t_1_6 - t_1_7 - 2000.000000 u_1_7_6 > -1996.657000
t_2_7 - t_2_6 + 2000.000000 u_2_7_6 > 6.681700
t_2_6 - t_2_7 - 2000.000000 u_2_7_6 > -1991.996378
t_1_8 - t_1_1 - 2000.000000 s_1_1 > -1995.383522
t_1_8 - t_2_1 - 2000.000000 s_2_1 > -1988.272104
t_2_8 - t_1_1 - 2000.000000 s_1_1 > -1995.383522
t_2_8 - t_2_1 - 2000.000000 s_2_1 > -1988.272104
t_1_8 - t_1_2 - 2000.000000 s_1_2 > -1995.170378
t_1_8 - t_2_2 - 2000.000000 s_2_2 > -1987.751904
t_2_8 - t_1_2 - 2000.000000 s_1_2 > -1995.170378
t_2_8 - t_2_2 - 2000.000000 s_2_2 > -1987.751904
t_1_8 - t_1_3 - 2000.000000 s_1_3 > -1995.012856
t_1_8 - t_2_3 - 2000.000000 s_2_3 > -1983.012277
t_2_8 - t_1_3 - 2000.000000 s_1_3 > -1995.012856
t_2_8 - t_2_3 - 2000.000000 s_2_3 > -1983.012277
t_1_8 - t_1_4 - 2000.000000 s_1_4 > -1993.088567
t_1_8 - t_2_4 - 2000.000000 s_2_4 > -1986.336025
t_2_8 - t_1_4 - 2000.000000 s_1_4 > -1993.088567
t_2_8 - t_2_4 - 2000.000000 s_2_4 > -1986.336025
t_1_8 - t_1_5 - 2000.000000 s_1_5 > -1992.474200
t_1_8 - t_2_5 - 2000.000000 s_2_5 > -1984.380647
t_2_8 - t_1_5 - 2000.000000 s_1_5 > -1992.474200
t_2_8 - t_2_5 - 2000.000000 s_2_5 > -1984.380647
Binary
s_1_1
s_2_1
s_1_2
s_2_2
s_1_3
s_2_3
s_1_4
s_2_4
s_1_5
s_2_5
s_1_6
s_2_6
s_1_7
s_2_7
s_1_8
s_2_8
u_1_1_2
u_2_1_2
u_1_1_3
u_2_1_3
u_1_1_4
u_2_1_4
u_1_1_5
u_2_1_5
u_1_1_7
u_2_1_7
u_1_2_1
u_2_2_1
u_1_2_3
u_2_2_3
u_1_2_4
u_2_2_4
u_1_2_5
u_2_2_5
u_1_2_6
u_2_2_6
u_1_3_1
u_2_3_1
u_1_3_2
u_2_3_2
u_1_3_5
u_2_3_5
u_1_3_6
u_2_3_6
u_1_4_1
u_2_4_1
u_1_4_2
u_2_4_2
u_1_4_5
u_2_4_5
u_1_4_6
u_2_4_6
u_1_5_1
u_2_5_1
u_1_5_2
u_2_5_2
u_1_5_3
u_2_5_3
u_1_5_4
u_2_5_4
u_1_6_2
u_2_6_2
u_1_6_3
u_2_6_3
u_1_6_4
u_2_6_4
u_1_6_7
u_2_6_7
u_1_7_1
u_2_7_1
u_1_7_6
u_2_7_6

End
